
(set-logic ALL) 

(declare-datatype MyList ((Nil) (Cons (head Real) (tail MyList)) )) 
(declare-fun l0 () MyList) 
(declare-fun l1 () MyList) 
(declare-fun l2 () MyList) 
(declare-fun l3 () MyList) 
(declare-fun i0 () Real) 
(declare-fun i1 () Real) 
(assert (is-Cons Nil) )
(assert (= l3 Nil) )
(assert (= l2 Nil) )
(assert (is-Nil l2) )
(assert (= l3 Nil) )
(assert (= l2 l0) )
(assert (or (is-Cons Nil) (= l3 Nil)) )
(assert (or (is-Nil Nil) (= l1 l1) (is-Nil Nil)) )
(check-sat)
